TYPE : Vertex Cover
DIMENSION: 26
EDGE_DATA_SECTION:
0 1
0 4
0 5
0 22
1 7
1 12
2 8
2 11
2 20
3 15
5 9
5 16
6 12
6 23
7 23
8 9
8 10
8 24
9 18
11 14
11 20
11 25
12 13
12 21
14 19
14 22
14 24
15 19
15 20
-1
VERTEX_DEGREE:
4.0 3.0 3.0 1.0 1.0 3.0 2.0 2.0 4.0 3.0 1.0 4.0 4.0 1.0 4.0 3.0 1.0 0.0 1.0 2.0 3.0 1.0 2.0 2.0 2.0 1.0
VERTEX_COVER:
0 5 7 8 9 11 12 14 15 20 23
EOF
